(set-option :produce-models true); benchmark generated from python API
(set-info :status unknown)
(declare-fun l_1_0_5 () Real)
(declare-fun l_1_0_4 () Real)
(declare-fun l_1_0_3 () Real)
(declare-fun l_1_0_14 () Real)
(declare-fun l_1_0_13 () Real)
(declare-fun l_1_0_12 () Real)
(declare-fun l_1_0_1 () Real)
(declare-fun _a_0_ () Real)
(declare-fun l_1_0_11 () Real)
(declare-fun l_1_0_10 () Real)
(declare-fun _a_1_ () Real)
(declare-fun l_1_0_9 () Real)
(declare-fun l_1_0_8 () Real)
(declare-fun l_1_0_7 () Real)
(declare-fun l_1_0_6 () Real)
(declare-fun l_1_0_2 () Real)
(declare-fun l_1_1_9 () Real)
(declare-fun l_1_1_8 () Real)
(declare-fun l_1_1_7 () Real)
(declare-fun l_1_1_6 () Real)
(declare-fun l_1_1_5 () Real)
(declare-fun l_1_1_4 () Real)
(declare-fun l_1_1_3 () Real)
(declare-fun l_1_1_2 () Real)
(declare-fun l_1_1_15 () Real)
(declare-fun l_1_1_14 () Real)
(declare-fun l_1_1_13 () Real)
(declare-fun l_1_1_12 () Real)
(declare-fun l_1_1_11 () Real)
(declare-fun l_1_1_10 () Real)
(declare-fun l_1_1_1 () Real)
(declare-fun l_1_1_20 () Real)
(declare-fun l_1_1_19 () Real)
(declare-fun l_1_1_18 () Real)
(declare-fun l_1_1_17 () Real)
(declare-fun l_1_1_16 () Real)
(declare-fun l_1_2_6 () Real)
(declare-fun l_1_2_5 () Real)
(declare-fun l_1_2_3 () Real)
(declare-fun l_1_2_20 () Real)
(declare-fun l_1_2_2 () Real)
(declare-fun l_1_2_19 () Real)
(declare-fun l_1_2_18 () Real)
(declare-fun l_1_2_12 () Real)
(declare-fun l_1_2_10 () Real)
(declare-fun l_1_2_8 () Real)
(declare-fun l_1_2_7 () Real)
(declare-fun l_1_2_4 () Real)
(declare-fun l_1_2_1 () Real)
(declare-fun l_1_2_17 () Real)
(declare-fun l_1_2_16 () Real)
(declare-fun l_1_2_9 () Real)
(declare-fun l_1_2_15 () Real)
(declare-fun l_1_2_14 () Real)
(declare-fun l_1_2_13 () Real)
(declare-fun l_1_2_11 () Real)
(assert
 (let ((?x45 (* 2.0 l_1_0_4)))
 (let ((?x1053 (* l_1_0_14 l_1_0_14)))
 (let ((?x1054 (* l_1_0_13 l_1_0_13)))
 (let ((?x1052 (+ (- (- (- (+ _a_0_ l_1_0_1) (* l_1_0_12 l_1_0_12)) ?x1054) ?x1053) l_1_0_3)))
 (= (+ (+ ?x1052 ?x45) l_1_0_5) 0.0))))))
(assert
 (let ((?x45 (* 2.0 l_1_0_4)))
 (let ((?x41 (* l_1_0_11 l_1_0_11)))
 (let ((?x939 (- (- (- (- _a_1_ l_1_0_1) (* l_1_0_10 l_1_0_10)) ?x41) l_1_0_3)))
 (= (- (- ?x939 ?x45) l_1_0_5) 0.0)))))
(assert
 (let ((?x952 (* l_1_0_9 l_1_0_9)))
 (let ((?x736 (- (- (- (* (- 1.0) l_1_0_1) l_1_0_2) (* 1.0 l_1_0_3)) (* 1.0 l_1_0_4))))
 (let ((?x709 (- (- (- (- ?x736 (* 1.0 l_1_0_5)) l_1_0_6) l_1_0_7) l_1_0_8)))
 (= (+ (- ?x709 ?x952) 1.0) 0.0)))))
(assert
 (= (- l_1_0_4) 0.0))
(assert
 (let ((?x45 (* 2.0 l_1_0_4)))
 (= ?x45 0.0)))
(assert
 (= (- l_1_0_4) 0.0))
(assert
 (= (* (* (- 2.0) l_1_0_10) l_1_0_9) 0.0))
(assert
 (= (* (* (- 2.0) l_1_0_12) l_1_0_9) 0.0))
(assert
 (let ((?x815 (- (* (* (- 2.0) l_1_0_10) l_1_0_12) (* (* 2.0 l_1_0_11) l_1_0_13))))
 (= ?x815 0.0)))
(assert
 (>= l_1_0_1 0.0))
(assert
 (>= l_1_0_2 0.0))
(assert
 (>= l_1_0_3 0.0))
(assert
 (>= l_1_0_4 0.0))
(assert
 (>= l_1_0_5 0.0))
(assert
 (>= l_1_0_6 0.0))
(assert
 (>= l_1_0_7 0.0))
(assert
 (>= l_1_0_8 0.0))
(assert
 (>= l_1_0_9 0.0))
(assert
 (>= l_1_0_11 0.0))
(assert
 (>= l_1_0_14 0.0))
(assert
 (let ((?x761 (* l_1_1_15 l_1_1_15)))
 (let ((?x759 (+ (- (- (* 1.0 l_1_1_1) (* 1.0 l_1_1_10)) l_1_1_11) (* 1.0 l_1_1_12))))
 (let ((?x673 (+ (- (- (- (- ?x759 l_1_1_13) l_1_1_14) ?x761) (* 1.0 l_1_1_2)) (* 1.0 l_1_1_3))))
 (let ((?x682 (- (+ (- (- ?x673 (* 1.0 l_1_1_4)) l_1_1_5) (* 1.0 l_1_1_6)) (* 1.0 l_1_1_7))))
 (= (+ (+ (- ?x682 (* 1.0 l_1_1_8)) (* 1.0 l_1_1_9)) (/ 15.0 4.0)) 0.0))))))
(assert
 (let ((?x638 (* 2.0 l_1_1_4)))
 (let ((?x505 (* l_1_1_20 l_1_1_20)))
 (let ((?x637 (* l_1_1_19 l_1_1_19)))
 (let ((?x35 (* l_1_1_18 l_1_1_18)))
 (let ((?x631 (* _a_0_ l_1_1_8)))
 (let ((?x514 (- (- (* (- _a_0_) l_1_1_10) (* _a_0_ l_1_1_2)) (* (* 2.0 _a_0_) l_1_1_7))))
 (let ((?x635 (- (- (- ?x514 ?x631) (* l_1_1_1 (- 1.0 (* 1.0 _a_0_)))) l_1_1_12)))
 (let ((?x23 (- (+ (- (- (- (- ?x635 ?x35) ?x637) ?x505) l_1_1_3) ?x638) l_1_1_6)))
 (= (+ (- ?x23 (* l_1_1_9 (- 1.0 (* 1.0 _a_0_)))) 1.0) 0.0))))))))))
(assert
 (let ((?x638 (* 2.0 l_1_1_4)))
 (let ((?x371 (* l_1_1_17 l_1_1_17)))
 (let ((?x368 (* l_1_1_16 l_1_1_16)))
 (let ((?x362 (* _a_1_ l_1_1_8)))
 (let ((?x361 (- (- (* (- _a_1_) l_1_1_10) (* _a_1_ l_1_1_2)) (* (* 2.0 _a_1_) l_1_1_7))))
 (let ((?x279 (- (- (- ?x361 ?x362) (* l_1_1_1 (- 1.0 (* 1.0 _a_1_)))) l_1_1_12)))
 (let ((?x295 (- (- (+ (- (- (- ?x279 ?x368) ?x371) l_1_1_3) ?x638) l_1_1_6) (* l_1_1_9 (- 1.0 (* 1.0 _a_1_))))))
 (= (+ ?x295 1.0) 0.0)))))))))
(assert
 (= (- (* (* (- 2.0) l_1_1_15) l_1_1_16) 4.0) 0.0))
(assert
 (let ((?x246 (- (- (- (* (- _a_0_) l_1_1_1) (* _a_0_ l_1_1_9)) l_1_1_4) (* (* l_1_1_7 _a_0_) _a_0_))))
 (= ?x246 0.0)))
(assert
 (let ((?x638 (* 2.0 l_1_1_4)))
 (let ((?x192 (- (* (* (* (- 2.0) _a_0_) _a_1_) l_1_1_7) (* l_1_1_1 (+ _a_0_ _a_1_)))))
 (= (- (- ?x192 ?x638) (* l_1_1_9 (+ _a_0_ _a_1_))) 0.0))))
(assert
 (let ((?x125 (- (- (- (* (- _a_1_) l_1_1_1) (* _a_1_ l_1_1_9)) l_1_1_4) (* (* l_1_1_7 _a_1_) _a_1_))))
 (= ?x125 0.0)))
(assert
 (= (* (* (- 2.0) l_1_1_15) l_1_1_18) 0.0))
(assert
 (let ((?x834 (- (* (* (- 2.0) l_1_1_16) l_1_1_18) (* (* 2.0 l_1_1_17) l_1_1_19))))
 (= ?x834 0.0)))
(assert
 (>= l_1_1_1 0.0))
(assert
 (>= l_1_1_2 0.0))
(assert
 (>= l_1_1_3 0.0))
(assert
 (>= l_1_1_4 0.0))
(assert
 (>= l_1_1_5 0.0))
(assert
 (>= l_1_1_6 0.0))
(assert
 (>= l_1_1_7 0.0))
(assert
 (>= l_1_1_8 0.0))
(assert
 (>= l_1_1_9 0.0))
(assert
 (>= l_1_1_10 0.0))
(assert
 (>= l_1_1_11 0.0))
(assert
 (>= l_1_1_12 0.0))
(assert
 (>= l_1_1_13 0.0))
(assert
 (>= l_1_1_14 0.0))
(assert
 (>= l_1_1_15 0.0))
(assert
 (>= l_1_1_17 0.0))
(assert
 (>= l_1_1_20 0.0))
(assert
 (let ((?x1037 (* 2.0 l_1_2_3)))
 (let ((?x1042 (* l_1_2_20 l_1_2_20)))
 (let ((?x905 (* l_1_2_19 l_1_2_19)))
 (let ((?x217 (* l_1_2_18 l_1_2_18)))
 (let ((?x591 (* (/ 81.0 1000000.0) _a_1_)))
 (let ((?x398 (* (/ 81.0 100.0) _a_0_)))
 (let ((?x649 (* _a_0_ l_1_2_8)))
 (let ((?x653 (* _a_0_ l_1_2_7)))
 (let ((?x650 (- (- (- (* (* (- 2.0) _a_0_) l_1_2_1) (* _a_0_ l_1_2_4)) ?x653) ?x649)))
 (let ((?x216 (- (+ (+ (+ ?x650 ?x398) ?x591) l_1_2_10) (* l_1_2_12 (- (* 1.0 _a_0_) 1.0)))))
 (let ((?x1038 (- (- (- ?x216 ?x217) ?x905) (* l_1_2_2 (- (* 1.0 _a_0_) 1.0)))))
 (= (+ (+ (+ (- ?x1038 ?x1042) ?x1037) l_1_2_5) l_1_2_6) 0.0)))))))))))))
(assert
 (let ((?x138 (* (/ 81.0 5000.0) _a_1_)))
 (let ((?x888 (* (- (/ 81.0 5000.0)) _a_0_)))
 (let ((?x131 (+ ?x888 ?x138)))
 (let ((?x418 (- (- ?x131 (* (* 2.0 l_1_2_16) l_1_2_18)) (* (* 2.0 l_1_2_17) l_1_2_19))))
 (= ?x418 0.0))))))
(assert
 (let ((?x1037 (* 2.0 l_1_2_3)))
 (let ((?x237 (* l_1_2_17 l_1_2_17)))
 (let ((?x496 (* l_1_2_16 l_1_2_16)))
 (let ((?x729 (* (/ 81.0 100.0) _a_1_)))
 (let ((?x723 (* _a_1_ l_1_2_8)))
 (let ((?x95 (* _a_1_ l_1_2_7)))
 (let ((?x553 (* _a_1_ l_1_2_4)))
 (let ((?x99 (- (- (- (* (/ 81.0 1000000.0) _a_0_) (* (* 2.0 _a_1_) l_1_2_1)) ?x553) ?x95)))
 (let ((?x738 (- (+ (+ (- ?x99 ?x723) ?x729) l_1_2_10) (* l_1_2_12 (- (* 1.0 _a_1_) 1.0)))))
 (let ((?x730 (- (- (- ?x738 ?x496) ?x237) (* l_1_2_2 (- (* 1.0 _a_1_) 1.0)))))
 (= (+ (+ (+ ?x730 ?x1037) l_1_2_5) l_1_2_6) 0.0))))))))))))
(assert
 (let ((?x185 (* l_1_2_15 l_1_2_15)))
 (let ((?x343 (- (- (- (* (- 1.0) l_1_2_1) (* 1.0 l_1_2_10)) l_1_2_11) (* 1.0 l_1_2_12))))
 (let ((?x334 (- (- (- (- (- ?x343 l_1_2_13) l_1_2_14) ?x185) (* 1.0 l_1_2_2)) (* 1.0 l_1_2_3))))
 (let ((?x580 (- (- (- ?x334 (* 1.0 l_1_2_4)) (* 1.0 l_1_2_5)) (* 1.0 l_1_2_6))))
 (let ((?x714 (+ (- (- (- ?x580 (* 1.0 l_1_2_7)) (* 1.0 l_1_2_8)) l_1_2_9) 1.0)))
 (= ?x714 0.0)))))))
(assert
 (let ((?x960 (* _a_0_ l_1_2_2)))
 (let ((?x519 (* _a_0_ l_1_2_12)))
 (let ((?x874 (+ ?x519 ?x960)))
 (= (- (- ?x874 (* (* l_1_2_1 _a_0_) _a_0_)) l_1_2_3) 0.0)))))
(assert
 (let ((?x1037 (* 2.0 l_1_2_3)))
 (let ((?x221 (- (* (* (* (- 2.0) _a_0_) _a_1_) l_1_2_1) (* l_1_2_12 (- (- _a_0_) _a_1_)))))
 (= (- (- ?x221 (* l_1_2_2 (- (- _a_0_) _a_1_))) ?x1037) 0.0))))
(assert
 (let ((?x170 (* _a_1_ l_1_2_2)))
 (let ((?x114 (* _a_1_ l_1_2_12)))
 (let ((?x657 (+ ?x114 ?x170)))
 (= (- (- ?x657 (* (* l_1_2_1 _a_1_) _a_1_)) l_1_2_3) 0.0)))))
(assert
 (= (* (* (- 2.0) l_1_2_15) l_1_2_16) 0.0))
(assert
 (= (* (* (- 2.0) l_1_2_15) l_1_2_18) 0.0))
(assert
 (>= l_1_2_1 0.0))
(assert
 (>= l_1_2_2 0.0))
(assert
 (>= l_1_2_3 0.0))
(assert
 (>= l_1_2_4 0.0))
(assert
 (>= l_1_2_5 0.0))
(assert
 (>= l_1_2_6 0.0))
(assert
 (>= l_1_2_7 0.0))
(assert
 (>= l_1_2_8 0.0))
(assert
 (>= l_1_2_9 0.0))
(assert
 (>= l_1_2_10 0.0))
(assert
 (>= l_1_2_11 0.0))
(assert
 (>= l_1_2_12 0.0))
(assert
 (>= l_1_2_13 0.0))
(assert
 (>= l_1_2_14 0.0))
(assert
 (>= l_1_2_15 0.0))
(assert
 (>= l_1_2_17 0.0))
(assert
 (>= l_1_2_20 0.0))
(check-sat)
(get-model)